Optimal - objective value 5506.00000000
      6 y_1_5                     1                     179
     14 y_2_11                    1         328.666666666667
     15 y_2_13                    1                     713
     19 y_3_13                    1                     438
     20 y_4_5                     1                     222
     22 y_4_9                     1                      39
     25 y_5_14                    1                     113
     27 y_6_12                    1                     908
     30 y_7_13                    1                     551
     33 y_8_14                    1                     780
     38 y_12_14                   1                     495
     39 y_13_14                   1                     500
     42 f_0_1_5_0                 1                       0
     73 f_0_5_14_1                1                       0
    156 f_1_14_5_0                3                       0
    169 f_1_5_4_1                 3                       0
    232 f_1_4_9_2                 3                       0
    268 f_2_8_14_0                4                       0
    284 f_2_14_12_1               4                       0
    332 f_2_12_6_2                4                       0
    357 f_3_13_2_0                4                       0
    376 f_3_2_11_1                4                       0
    483 f_4_14_13_0               3                       0
    491 f_4_13_3_1                3                       0
    590 f_5_7_13_0                1                       0
    609 f_5_13_14_1               1                       0
    669 f_5_14_12_2               1                       0
    675 f_5_12_6_3                1                       0
    682 f_6_12_14_0               2                       0
    710 f_6_14_8_1                2                       0
    799 f_7_2_13_0                2                       0
    838 f_7_13_14_1               2                       0
    916 f_8_5_14_0                3                       0
    947 f_8_14_13_1               3                       0
   1001 f_8_13_7_2                3                       0
   1025 f_9_4_5_0                 1                       0
   1053 f_9_5_14_1                1                       0
   1119 f_9_14_8_2                1                       0
